c Random generated cnf formula, satisfiable: true
p cnf 10 50
-6 -9 1 0
6 -4 9 0
5 7 -1 0
-2 -4 -3 0
3 1 5 0
9 3 5 0
-3 6 9 0
1 -2 3 0
-5 -8 4 0
4 -8 -5 0
-10 6 3 0
-7 -1 -3 0
-6 1 8 0
-5 -3 -2 0
-1 -7 3 0
8 -1 4 0
-3 -7 2 0
6 -10 -7 0
-9 -4 6 0
-8 -6 -4 0
8 -6 9 0
1 6 3 0
-9 -6 4 0
-9 5 4 0
-7 8 -2 0
4 -8 -10 0
-7 8 5 0
10 -8 -4 0
8 -6 -5 0
7 4 10 0
8 -7 -3 0
7 -6 4 0
2 -7 8 0
8 -2 9 0
8 3 -1 0
7 -3 5 0
-7 -2 -8 0
-1 5 -4 0
2 -3 -4 0
-4 10 1 0
10 2 9 0
6 3 2 0
-8 5 4 0
4 -10 -8 0
-7 -9 -1 0
4 -7 -10 0
8 -7 -6 0
-3 9 -5 0
8 -1 -4 0
-4 5 1 0
